
Gurobi 9.1.1 (linux64) logging started Tue Oct 19 12:04:21 2021

Changed value of parameter LogFile to results/max2cut_numv160/max2cut_numv160_i160-205_peel_decompose_weighted_BQO_log.txt
   Prev:   Default: 
Gurobi Optimizer version 9.1.1 build v9.1.1rc0 (linux64)
Thread count: 20 physical cores, 40 logical processors, using up to 10 threads
Optimize a model with 128 rows, 256 columns and 256 nonzeros
Model fingerprint: 0xbbce3e22
Model has 672 quadratic objective terms
Variable types: 0 continuous, 256 integer (256 binary)
Coefficient statistics:
  Matrix range     [1e+00, 1e+00]
  Objective range  [6e+01, 6e+01]
  QObjective range [1e+02, 6e+02]
  Bounds range     [1e+00, 1e+00]
  RHS range        [1e+00, 1e+00]
Found heuristic solution: objective -0.0000000
Presolve removed 128 rows and 130 columns
Presolve time: 0.00s
Presolved: 202 rows, 328 columns, 606 nonzeros
Found heuristic solution: objective 305.0000000
Variable types: 0 continuous, 328 integer (328 binary)
Found heuristic solution: objective 18158.000000

Root relaxation: objective -2.718550e+04, 80 iterations, 0.00 seconds

    Nodes    |    Current Node    |     Objective Bounds      |     Work
 Expl Unexpl |  Obj  Depth IntInf | Incumbent    BestBd   Gap | It/Node Time

     0     0 27185.5000    0  119 18158.0000 27185.5000  49.7%     -    0s
H    0     0                    21983.000000 27185.5000  23.7%     -    0s
H    0     0                    22184.000000 27185.5000  22.5%     -    0s
H    0     0                    23489.000000 25962.0000  10.5%     -    0s
     0     0 25879.0000    0  134 23489.0000 25879.0000  10.2%     -    0s
H    0     0                    23692.000000 25519.0000  7.71%     -    0s
     0     0 25445.0000    0  133 23692.0000 25445.0000  7.40%     -    0s
     0     0 25445.0000    0  131 23692.0000 25445.0000  7.40%     -    0s
     0     2 25445.0000    0  131 23692.0000 25445.0000  7.40%     -    0s
H   68    72                    24187.000000 24985.5000  3.30%  20.0    0s
*   82    63               9    24449.000000 24985.5000  2.19%  19.6    0s
*  209     0               8    24466.000000 24981.0000  2.10%  17.5    0s

Cutting planes:
  Gomory: 9
  MIR: 3
  Zero half: 41
  RLT: 1

Explored 216 nodes (4044 simplex iterations) in 0.11 seconds
Thread count was 10 (of 40 available processors)

Solution count 10: 24466 24449 24187 ... 305

Optimal solution found (tolerance 0.00e+00)
Best objective 2.446600000000e+04, best bound 2.446600000000e+04, gap 0.0000%
